36880
1 1 0 0 0 1 0 0 1 1 0 0 1 0 1 0 1 0 1 0 0 1 0 0 0 0 0 1 1 1 
18 28 21 27 21 12 21 27 27 27 29 28 8 1 28 18 1 8 27 0 27 16 5 0 5 27 27 14 29 21 14 14 29 16 27 12 8 8 16 16 18 9 12 29 8 14 8 21 14 14 0 16 21 16 8 12 27 9 18 18 29 0 18 8 8 12 5 14 28 12 18 12 29 9 5 5 8 5 8 16 5 0 9 18 29 8 29 5 27 18 28 28 18 12 0 1 27 12 0 28 28 21 12 18 29 0 29 27 27 1 14 29 27 12 12 8 28 18 14 8 9 18 0 14 9 16 21 12 9 0 28 21 12 8 1 9 1 8 28 14 12 27 28 12 12 5 16 21 27 18 27 0 5 0 8 28 5 16 8 1 1 27 5 0 5 27 5 29 1 21 1 8 14 14 9 21 0 14 29 8 5 21 21 28 12 8 28 5 0 21 21 21 12 29 18 12 18 21 14 14 
